TCS_Benchmarks/redos_fix/regexlib2_output_distinct_2188_2187_176_0.smt2
(set-logic QF_S)
(declare-const x String)
(assert (str.in.re x (re.inter  (re.++  (str.to.re "\u{31}") (re.++  (str.to.re "\u{31}")  (str.to.re "\u{31}")))  (re.++  (re.union (str.to_re "") (re.union  (re.++ (re.range "\u{30}" "\u{39}")  (str.to_re ""))  (re.++ (re.range "\u{30}" "\u{39}")   (re.++ (re.range "\u{30}" "\u{39}")  (str.to_re ""))))) (re.++  (re.union (str.to_re "") (re.union  (re.++ (re.range "\u{30}" "\u{39}")  (str.to_re ""))  (re.++ (re.range "\u{30}" "\u{39}")   (re.++ (re.range "\u{30}" "\u{39}")  (str.to_re "")))))  (re.union (str.to_re "") (re.union  (re.++ (re.range "\u{30}" "\u{39}")  (str.to_re ""))  (re.++ (re.range "\u{30}" "\u{39}")   (re.++ (re.range "\u{30}" "\u{39}")  (str.to_re ""))))))) )))
(check-sat)
(get-model)