TCS_Benchmarks/redos_fix/regexlib2_output_distinct_2188_2187_176_0.txt
(1){3}
([0-9]{0,2}){3}